\* Source Pyomo model name=unknown *\

min 
x411:
+1 x231
+1 x236
+1 x237
+1 x241
+1 x244
+1 x246
+1 x256
+1 x257
+1 x258
+1 x259
+1 x260
+1 x261
+1 x262
+1 x264
+1 x268
+1 x269
+1 x270
+1 x271
+1 x272
+1 x274
+1 x277
+1 x282
+1 x283
+1 x287
+1 x290
+1 x291
+1 x301
+1 x302
+1 x303
+1 x304
+1 x305
+1 x306
+1 x307
+1 x309
+1 x313
+1 x314
+1 x315
+1 x316
+1 x317
+1 x319

s.t.

c_e_x412_:
+1 x138
= 0

c_e_x413_:
+1 x141
= 0

c_e_x414_:
+1 x146
= 0

c_e_x415_:
+1 x147
= 0

c_e_x416_:
+1 x151
= 0

c_e_x417_:
+1 x154
= 0

c_e_x418_:
+1 x156
= 0

c_e_x419_:
+1 x166
= 0

c_e_x420_:
+1 x167
= 0

c_e_x421_:
+1 x168
= 0

c_e_x422_:
+1 x169
= 0

c_e_x423_:
+1 x170
= 0

c_e_x424_:
+1 x171
= 0

c_e_x425_:
+1 x172
= 0

c_e_x426_:
+1 x174
= 0

c_e_x427_:
+1 x178
= 0

c_e_x428_:
+1 x179
= 0

c_e_x429_:
+1 x180
= 0

c_e_x430_:
+1 x181
= 0

c_e_x431_:
+1 x182
= 0

c_e_x432_:
+1 x184
= 0

c_e_x433_:
+1 x187
= 0

c_e_x434_:
+1 x192
= 0

c_e_x435_:
+1 x193
= 0

c_e_x436_:
+1 x197
= 0

c_e_x437_:
+1 x200
= 0

c_e_x438_:
+1 x201
= 0

c_e_x439_:
+1 x211
= 0

c_e_x440_:
+1 x212
= 0

c_e_x441_:
+1 x213
= 0

c_e_x442_:
+1 x214
= 0

c_e_x443_:
+1 x215
= 0

c_e_x444_:
+1 x216
= 0

c_e_x445_:
+1 x217
= 0

c_e_x446_:
+1 x219
= 0

c_e_x447_:
+1 x223
= 0

c_e_x448_:
+1 x224
= 0

c_e_x449_:
+1 x225
= 0

c_e_x450_:
+1 x226
= 0

c_e_x451_:
+1 x227
= 0

c_e_x452_:
+1 x139
-1 x229
= 0

c_e_x453_:
+1 x140
-1 x230
= 0

c_e_x454_:
+1 x141
-1 x231
= 0

c_e_x455_:
+1 x142
-1 x232
= 0

c_e_x456_:
+1 x143
-1 x233
= 0

c_e_x457_:
+1 x144
-1 x234
= 0

c_e_x458_:
+1 x145
-1 x235
= 0

c_e_x459_:
+1 x146
-1 x236
= 0

c_e_x460_:
+1 x147
-1 x237
= 0

c_e_x461_:
+1 x148
-1 x238
= 0

c_e_x462_:
+1 x149
-1 x239
= 0

c_e_x463_:
+1 x150
-1 x240
= 0

c_e_x464_:
+1 x151
-1 x241
= 0

c_e_x465_:
+1 x152
-1 x242
= 0

c_e_x466_:
+1 x153
-1 x243
= 0

c_e_x467_:
+1 x154
-1 x244
= 0

c_e_x468_:
+1 x155
-1 x245
= 0

c_e_x469_:
+1 x156
-1 x246
= 0

c_e_x470_:
+1 x157
-1 x247
= 0

c_e_x471_:
+1 x158
-1 x248
= 0

c_e_x472_:
+1 x159
-1 x249
= 0

c_e_x473_:
+1 x160
-1 x250
= 0

c_e_x474_:
+1 x161
-1 x251
= 0

c_e_x475_:
+1 x162
-1 x252
= 0

c_e_x476_:
+1 x163
-1 x253
= 0

c_e_x477_:
+1 x164
-1 x254
= 0

c_e_x478_:
+1 x165
-1 x255
= 0

c_e_x479_:
+1 x166
-1 x256
= 0

c_e_x480_:
+1 x167
-1 x257
= 0

c_e_x481_:
+1 x168
-1 x258
= 0

c_e_x482_:
+1 x169
-1 x259
= 0

c_e_x483_:
+1 x170
-1 x260
= 0

c_e_x484_:
+1 x171
-1 x261
= 0

c_e_x485_:
+1 x172
-1 x262
= 0

c_e_x486_:
+1 x173
-1 x263
= 0

c_e_x487_:
+1 x174
-1 x264
= 0

c_e_x488_:
+1 x175
-1 x265
= 0

c_e_x489_:
+1 x176
-1 x266
= 0

c_e_x490_:
+1 x177
-1 x267
= 0

c_e_x491_:
+1 x178
-1 x268
= 0

c_e_x492_:
+1 x179
-1 x269
= 0

c_e_x493_:
+1 x180
-1 x270
= 0

c_e_x494_:
+1 x181
-1 x271
= 0

c_e_x495_:
+1 x182
-1 x272
= 0

c_e_x496_:
+1 x183
-1 x273
= 0

c_e_x497_:
+1 x185
-1 x275
= 0

c_e_x498_:
+1 x186
-1 x276
= 0

c_e_x499_:
+1 x187
-1 x277
= 0

c_e_x500_:
+1 x188
-1 x278
= 0

c_e_x501_:
+1 x189
-1 x279
= 0

c_e_x502_:
+1 x190
-1 x280
= 0

c_e_x503_:
+1 x191
-1 x281
= 0

c_e_x504_:
+1 x192
-1 x282
= 0

c_e_x505_:
+1 x193
-1 x283
= 0

c_e_x506_:
+1 x194
-1 x284
= 0

c_e_x507_:
+1 x195
-1 x285
= 0

c_e_x508_:
+1 x196
-1 x286
= 0

c_e_x509_:
+1 x197
-1 x287
= 0

c_e_x510_:
+1 x198
-1 x288
= 0

c_e_x511_:
+1 x199
-1 x289
= 0

c_e_x512_:
+1 x200
-1 x290
= 0

c_e_x513_:
+1 x201
-1 x291
= 0

c_e_x514_:
+1 x202
-1 x292
= 0

c_e_x515_:
+1 x203
-1 x293
= 0

c_e_x516_:
+1 x204
-1 x294
= 0

c_e_x517_:
+1 x205
-1 x295
= 0

c_e_x518_:
+1 x206
-1 x296
= 0

c_e_x519_:
+1 x207
-1 x297
= 0

c_e_x520_:
+1 x208
-1 x298
= 0

c_e_x521_:
+1 x209
-1 x299
= 0

c_e_x522_:
+1 x210
-1 x300
= 0

c_e_x523_:
+1 x211
-1 x301
= 0

c_e_x524_:
+1 x212
-1 x302
= 0

c_e_x525_:
+1 x213
-1 x303
= 0

c_e_x526_:
+1 x214
-1 x304
= 0

c_e_x527_:
+1 x215
-1 x305
= 0

c_e_x528_:
+1 x216
-1 x306
= 0

c_e_x529_:
+1 x217
-1 x307
= 0

c_e_x530_:
+1 x218
-1 x308
= 0

c_e_x531_:
+1 x219
-1 x309
= 0

c_e_x532_:
+1 x220
-1 x310
= 0

c_e_x533_:
+1 x221
-1 x311
= 0

c_e_x534_:
+1 x222
-1 x312
= 0

c_e_x535_:
+1 x223
-1 x313
= 0

c_e_x536_:
+1 x224
-1 x314
= 0

c_e_x537_:
+1 x225
-1 x315
= 0

c_e_x538_:
+1 x226
-1 x316
= 0

c_e_x539_:
+1 x227
-1 x317
= 0

c_e_x540_:
+1 x228
-1 x318
= 0

c_e_x541_:
+1 x1
= 1

c_e_x542_:
+1 x47
+1 x93
= 5

c_e_x543_:
+1 x2
= 1

c_e_x544_:
+1 x48
+1 x94
= 2

c_e_x545_:
+1 x3
= 1

c_e_x546_:
+1 x49
+1 x95
= 4

c_e_x547_:
+1 x4
= 1

c_e_x548_:
+1 x50
+1 x96
= 6

c_e_x549_:
+1 x5
= 0

c_e_x550_:
+1 x51
+1 x97
= 0

c_e_x551_:
+1 x6
= 0

c_e_x552_:
+1 x52
+1 x98
= 0

c_e_x553_:
+1 x7
= 1

c_e_x554_:
+1 x53
+1 x99
= 3

c_e_x555_:
+1 x8
= 0

c_e_x556_:
+1 x100
+1 x54
= 0

c_e_x557_:
+1 x9
= 1

c_e_x558_:
+1 x101
+1 x55
= 6

c_e_x559_:
+1 x10
= 0

c_e_x560_:
+1 x102
+1 x56
= 0

c_e_x561_:
+1 x11
= 1

c_e_x562_:
+1 x103
+1 x57
= 3

c_e_x563_:
+1 x12
= 1

c_e_x564_:
+1 x104
+1 x58
= 2

c_e_x565_:
+1 x13
= 0

c_e_x566_:
+1 x105
+1 x59
= 0

c_e_x567_:
+1 x14
= 1

c_e_x568_:
+1 x106
+1 x60
= 2

c_e_x569_:
+1 x15
= 0

c_e_x570_:
+1 x107
+1 x61
= 0

c_e_x571_:
+1 x16
= 0

c_e_x572_:
+1 x108
+1 x62
= 0

c_e_x573_:
+1 x17
= 1

c_e_x574_:
+1 x63
= 5

c_e_x575_:
+1 x18
= 1

c_e_x576_:
+1 x109
+1 x64
= 3

c_e_x577_:
+1 x19
= 1

c_e_x578_:
+1 x110
+1 x65
= 2

c_e_x579_:
+1 x20
= 1

c_e_x580_:
+1 x111
+1 x66
= 3

c_e_x581_:
+1 x21
= 1

c_e_x582_:
+1 x112
+1 x67
= 2

c_e_x583_:
+1 x22
= 0

c_e_x584_:
+1 x113
+1 x68
= 0

c_e_x585_:
+1 x23
= 1

c_e_x586_:
+1 x114
+1 x69
= 4

c_e_x587_:
+1 x24
= 0

c_e_x588_:
+1 x115
+1 x70
= 0

c_e_x589_:
+1 x25
= 1

c_e_x590_:
+1 x116
+1 x71
= 6

c_e_x591_:
+1 x26
= 1

c_e_x592_:
+1 x117
+1 x72
= 1

c_e_x593_:
+1 x27
= 0

c_e_x594_:
+1 x118
+1 x73
= 0

c_e_x595_:
+1 x28
= 1

c_e_x596_:
+1 x119
+1 x74
= 6

c_e_x597_:
+1 x29
= 0

c_e_x598_:
+1 x120
+1 x75
= 0

c_e_x599_:
+1 x30
= 0

c_e_x600_:
+1 x121
+1 x76
= 0

c_e_x601_:
+1 x31
= 0

c_e_x602_:
+1 x122
+1 x77
= 0

c_e_x603_:
+1 x32
= 1

c_e_x604_:
+1 x123
+1 x78
= 4

c_e_x605_:
+1 x33
= 1

c_e_x606_:
+1 x124
+1 x79
= 5

c_e_x607_:
+1 x34
= 0

c_e_x608_:
+1 x125
+1 x80
= 0

c_e_x609_:
+1 x35
= 1

c_e_x610_:
+1 x126
+1 x81
= 3

c_e_x611_:
+1 x36
= 1

c_e_x612_:
+1 x127
+1 x82
= 3

c_e_x613_:
+1 x37
= 0

c_e_x614_:
+1 x128
+1 x83
= 0

c_e_x615_:
+1 x38
= 0

c_e_x616_:
+1 x129
+1 x84
= 0

c_e_x617_:
+1 x39
= 1

c_e_x618_:
+1 x130
+1 x85
= 6

c_e_x619_:
+1 x40
= 1

c_e_x620_:
+1 x131
+1 x86
= 6

c_e_x621_:
+1 x41
= 0

c_e_x622_:
+1 x134
+1 x89
= 0

c_e_x623_:
+1 x42
= 0

c_e_x624_:
+1 x132
+1 x87
= 0

c_e_x625_:
+1 x43
= 1

c_e_x626_:
+1 x133
+1 x88
= 0

c_e_x627_:
+1 x44
= 0

c_e_x628_:
+1 x135
+1 x90
= 0

c_e_x629_:
+1 x45
= 0

c_e_x630_:
+1 x136
+1 x91
= 0

c_e_x631_:
+1 x46
= 1

c_e_x632_:
+1 x137
+1 x92
= 4

c_l_x633_:
+1 x320
>= 0

c_l_x634_:
+1 x138
>= 0

c_l_x635_:
+1 x229
>= 0

c_l_x636_:
+1 x321
>= 0

c_l_x637_:
+1 x139
>= 0

c_l_x638_:
+1 x230
>= 0

c_l_x639_:
+1 x322
>= 0

c_l_x640_:
+1 x140
>= 0

c_l_x641_:
+1 x231
>= 0

c_l_x642_:
+1 x323
>= 0

c_l_x643_:
+1 x141
>= 0

c_l_x644_:
+1 x232
>= 0

c_l_x645_:
+1 x324
>= 0

c_l_x646_:
+1 x142
>= 0

c_l_x647_:
+1 x233
>= 0

c_l_x648_:
+1 x325
>= 0

c_l_x649_:
+1 x143
>= 0

c_l_x650_:
+1 x234
>= 0

c_l_x651_:
+1 x326
>= 0

c_l_x652_:
+1 x144
>= 0

c_l_x653_:
+1 x235
>= 0

c_l_x654_:
+1 x327
>= 0

c_l_x655_:
+1 x145
>= 0

c_l_x656_:
+1 x236
>= 0

c_l_x657_:
+1 x328
>= 0

c_l_x658_:
+1 x146
>= 0

c_l_x659_:
+1 x237
>= 0

c_l_x660_:
+1 x329
>= 0

c_l_x661_:
+1 x147
>= 0

c_l_x662_:
+1 x238
>= 0

c_l_x663_:
+1 x330
>= 0

c_l_x664_:
+1 x148
>= 0

c_l_x665_:
+1 x239
>= 0

c_l_x666_:
+1 x331
>= 0

c_l_x667_:
+1 x149
>= 0

c_l_x668_:
+1 x240
>= 0

c_l_x669_:
+1 x332
>= 0

c_l_x670_:
+1 x150
>= 0

c_l_x671_:
+1 x241
>= 0

c_l_x672_:
+1 x333
>= 0

c_l_x673_:
+1 x151
>= 0

c_l_x674_:
+1 x242
>= 0

c_l_x675_:
+1 x334
>= 0

c_l_x676_:
+1 x152
>= 0

c_l_x677_:
+1 x243
>= 0

c_l_x678_:
+1 x335
>= 0

c_l_x679_:
+1 x153
>= 0

c_l_x680_:
+1 x244
>= 0

c_l_x681_:
+1 x336
>= 0

c_l_x682_:
+1 x154
>= 0

c_l_x683_:
+1 x245
>= 0

c_l_x684_:
+1 x337
>= 0

c_l_x685_:
+1 x155
>= 0

c_l_x686_:
+1 x246
>= 0

c_l_x687_:
+1 x338
>= 0

c_l_x688_:
+1 x156
>= 0

c_l_x689_:
+1 x247
>= 0

c_l_x690_:
+1 x339
>= 0

c_l_x691_:
+1 x157
>= 0

c_l_x692_:
+1 x248
>= 0

c_l_x693_:
+1 x340
>= 0

c_l_x694_:
+1 x158
>= 0

c_l_x695_:
+1 x249
>= 0

c_l_x696_:
+1 x341
>= 0

c_l_x697_:
+1 x159
>= 0

c_l_x698_:
+1 x250
>= 0

c_l_x699_:
+1 x342
>= 0

c_l_x700_:
+1 x160
>= 0

c_l_x701_:
+1 x251
>= 0

c_l_x702_:
+1 x343
>= 0

c_l_x703_:
+1 x161
>= 0

c_l_x704_:
+1 x252
>= 0

c_l_x705_:
+1 x344
>= 0

c_l_x706_:
+1 x162
>= 0

c_l_x707_:
+1 x253
>= 0

c_l_x708_:
+1 x345
>= 0

c_l_x709_:
+1 x163
>= 0

c_l_x710_:
+1 x254
>= 0

c_l_x711_:
+1 x346
>= 0

c_l_x712_:
+1 x164
>= 0

c_l_x713_:
+1 x255
>= 0

c_l_x714_:
+1 x347
>= 0

c_l_x715_:
+1 x165
>= 0

c_l_x716_:
+1 x256
>= 0

c_l_x717_:
+1 x348
>= 0

c_l_x718_:
+1 x166
>= 0

c_l_x719_:
+1 x257
>= 0

c_l_x720_:
+1 x349
>= 0

c_l_x721_:
+1 x167
>= 0

c_l_x722_:
+1 x258
>= 0

c_l_x723_:
+1 x350
>= 0

c_l_x724_:
+1 x168
>= 0

c_l_x725_:
+1 x259
>= 0

c_l_x726_:
+1 x351
>= 0

c_l_x727_:
+1 x169
>= 0

c_l_x728_:
+1 x260
>= 0

c_l_x729_:
+1 x352
>= 0

c_l_x730_:
+1 x170
>= 0

c_l_x731_:
+1 x261
>= 0

c_l_x732_:
+1 x353
>= 0

c_l_x733_:
+1 x171
>= 0

c_l_x734_:
+1 x262
>= 0

c_l_x735_:
+1 x354
>= 0

c_l_x736_:
+1 x172
>= 0

c_l_x737_:
+1 x263
>= 0

c_l_x738_:
+1 x355
>= 0

c_l_x739_:
+1 x173
>= 0

c_l_x740_:
+1 x264
>= 0

c_l_x741_:
+1 x356
>= 0

c_l_x742_:
+1 x174
>= 0

c_l_x743_:
+1 x265
>= 0

c_l_x744_:
+1 x357
>= 0

c_l_x745_:
+1 x175
>= 0

c_l_x746_:
+1 x266
>= 0

c_l_x747_:
+1 x358
>= 0

c_l_x748_:
+1 x176
>= 0

c_l_x749_:
+1 x267
>= 0

c_l_x750_:
+1 x359
>= 0

c_l_x751_:
+1 x177
>= 0

c_l_x752_:
+1 x268
>= 0

c_l_x753_:
+1 x360
>= 0

c_l_x754_:
+1 x178
>= 0

c_l_x755_:
+1 x269
>= 0

c_l_x756_:
+1 x361
>= 0

c_l_x757_:
+1 x179
>= 0

c_l_x758_:
+1 x270
>= 0

c_l_x759_:
+1 x362
>= 0

c_l_x760_:
+1 x180
>= 0

c_l_x761_:
+1 x271
>= 0

c_l_x762_:
+1 x363
>= 0

c_l_x763_:
+1 x181
>= 0

c_l_x764_:
+1 x272
>= 0

c_l_x765_:
+1 x364
>= 0

c_l_x766_:
+1 x182
>= 0

c_l_x767_:
+1 x273
>= 0

c_l_x768_:
+1 x365
>= 0

c_l_x769_:
+1 x183
>= 0

c_l_x770_:
+1 x274
>= 0

c_l_x771_:
+1 x366
>= 0

c_l_x772_:
+1 x184
>= 0

c_l_x773_:
+1 x275
>= 0

c_l_x774_:
+1 x367
>= 0

c_l_x775_:
+1 x185
>= 0

c_l_x776_:
+1 x276
>= 0

c_l_x777_:
+1 x368
>= 0

c_l_x778_:
+1 x186
>= 0

c_l_x779_:
+1 x277
>= 0

c_l_x780_:
+1 x369
>= 0

c_l_x781_:
+1 x187
>= 0

c_l_x782_:
+1 x278
>= 0

c_l_x783_:
+1 x370
>= 0

c_l_x784_:
+1 x188
>= 0

c_l_x785_:
+1 x279
>= 0

c_l_x786_:
+1 x371
>= 0

c_l_x787_:
+1 x189
>= 0

c_l_x788_:
+1 x280
>= 0

c_l_x789_:
+1 x372
>= 0

c_l_x790_:
+1 x190
>= 0

c_l_x791_:
+1 x281
>= 0

c_l_x792_:
+1 x373
>= 0

c_l_x793_:
+1 x191
>= 0

c_l_x794_:
+1 x282
>= 0

c_l_x795_:
+1 x374
>= 0

c_l_x796_:
+1 x192
>= 0

c_l_x797_:
+1 x283
>= 0

c_l_x798_:
+1 x375
>= 0

c_l_x799_:
+1 x193
>= 0

c_l_x800_:
+1 x284
>= 0

c_l_x801_:
+1 x376
>= 0

c_l_x802_:
+1 x194
>= 0

c_l_x803_:
+1 x285
>= 0

c_l_x804_:
+1 x377
>= 0

c_l_x805_:
+1 x195
>= 0

c_l_x806_:
+1 x286
>= 0

c_l_x807_:
+1 x378
>= 0

c_l_x808_:
+1 x196
>= 0

c_l_x809_:
+1 x287
>= 0

c_l_x810_:
+1 x379
>= 0

c_l_x811_:
+1 x197
>= 0

c_l_x812_:
+1 x288
>= 0

c_l_x813_:
+1 x380
>= 0

c_l_x814_:
+1 x198
>= 0

c_l_x815_:
+1 x289
>= 0

c_l_x816_:
+1 x381
>= 0

c_l_x817_:
+1 x199
>= 0

c_l_x818_:
+1 x290
>= 0

c_l_x819_:
+1 x382
>= 0

c_l_x820_:
+1 x200
>= 0

c_l_x821_:
+1 x291
>= 0

c_l_x822_:
+1 x383
>= 0

c_l_x823_:
+1 x201
>= 0

c_l_x824_:
+1 x292
>= 0

c_l_x825_:
+1 x384
>= 0

c_l_x826_:
+1 x202
>= 0

c_l_x827_:
+1 x293
>= 0

c_l_x828_:
+1 x385
>= 0

c_l_x829_:
+1 x203
>= 0

c_l_x830_:
+1 x294
>= 0

c_l_x831_:
+1 x386
>= 0

c_l_x832_:
+1 x204
>= 0

c_l_x833_:
+1 x295
>= 0

c_l_x834_:
+1 x387
>= 0

c_l_x835_:
+1 x205
>= 0

c_l_x836_:
+1 x296
>= 0

c_l_x837_:
+1 x388
>= 0

c_l_x838_:
+1 x206
>= 0

c_l_x839_:
+1 x297
>= 0

c_l_x840_:
+1 x389
>= 0

c_l_x841_:
+1 x207
>= 0

c_l_x842_:
+1 x298
>= 0

c_l_x843_:
+1 x390
>= 0

c_l_x844_:
+1 x208
>= 0

c_l_x845_:
+1 x299
>= 0

c_l_x846_:
+1 x391
>= 0

c_l_x847_:
+1 x209
>= 0

c_l_x848_:
+1 x300
>= 0

c_l_x849_:
+1 x392
>= 0

c_l_x850_:
+1 x210
>= 0

c_l_x851_:
+1 x301
>= 0

c_l_x852_:
+1 x393
>= 0

c_l_x853_:
+1 x211
>= 0

c_l_x854_:
+1 x302
>= 0

c_l_x855_:
+1 x394
>= 0

c_l_x856_:
+1 x212
>= 0

c_l_x857_:
+1 x303
>= 0

c_l_x858_:
+1 x395
>= 0

c_l_x859_:
+1 x213
>= 0

c_l_x860_:
+1 x304
>= 0

c_l_x861_:
+1 x396
>= 0

c_l_x862_:
+1 x214
>= 0

c_l_x863_:
+1 x305
>= 0

c_l_x864_:
+1 x397
>= 0

c_l_x865_:
+1 x215
>= 0

c_l_x866_:
+1 x306
>= 0

c_l_x867_:
+1 x398
>= 0

c_l_x868_:
+1 x216
>= 0

c_l_x869_:
+1 x307
>= 0

c_l_x870_:
+1 x399
>= 0

c_l_x871_:
+1 x217
>= 0

c_l_x872_:
+1 x308
>= 0

c_l_x873_:
+1 x400
>= 0

c_l_x874_:
+1 x218
>= 0

c_l_x875_:
+1 x309
>= 0

c_l_x876_:
+1 x401
>= 0

c_l_x877_:
+1 x219
>= 0

c_l_x878_:
+1 x310
>= 0

c_l_x879_:
+1 x402
>= 0

c_l_x880_:
+1 x220
>= 0

c_l_x881_:
+1 x311
>= 0

c_l_x882_:
+1 x403
>= 0

c_l_x883_:
+1 x221
>= 0

c_l_x884_:
+1 x312
>= 0

c_l_x885_:
+1 x404
>= 0

c_l_x886_:
+1 x222
>= 0

c_l_x887_:
+1 x313
>= 0

c_l_x888_:
+1 x405
>= 0

c_l_x889_:
+1 x223
>= 0

c_l_x890_:
+1 x314
>= 0

c_l_x891_:
+1 x406
>= 0

c_l_x892_:
+1 x224
>= 0

c_l_x893_:
+1 x315
>= 0

c_l_x894_:
+1 x407
>= 0

c_l_x895_:
+1 x225
>= 0

c_l_x896_:
+1 x316
>= 0

c_l_x897_:
+1 x408
>= 0

c_l_x898_:
+1 x226
>= 0

c_l_x899_:
+1 x317
>= 0

c_l_x900_:
+1 x409
>= 0

c_l_x901_:
+1 x227
>= 0

c_l_x902_:
+1 x318
>= 0

c_l_x903_:
+1 x410
>= 0

c_l_x904_:
+1 x228
>= 0

c_l_x905_:
+1 x319
>= 0

c_u_x906_:
+1 x320
-1000 x47
<= 0

c_u_x907_:
+1 x321
-1000 x48
<= 0

c_u_x908_:
+1 x322
-1000 x49
<= 0

c_u_x909_:
+1 x323
-1000 x50
<= 0

c_u_x910_:
+1 x324
-1000 x51
<= 0

c_u_x911_:
+1 x325
-1000 x52
<= 0

c_u_x912_:
+1 x326
-1000 x53
<= 0

c_u_x913_:
+1 x327
-1000 x54
<= 0

c_u_x914_:
+1 x328
-1000 x55
<= 0

c_u_x915_:
+1 x329
-1000 x56
<= 0

c_u_x916_:
+1 x330
-1000 x57
<= 0

c_u_x917_:
+1 x331
-1000 x58
<= 0

c_u_x918_:
+1 x332
-1000 x59
<= 0

c_u_x919_:
+1 x333
-1000 x60
<= 0

c_u_x920_:
+1 x334
-1000 x61
<= 0

c_u_x921_:
+1 x335
-1000 x62
<= 0

c_u_x922_:
+1 x336
-1000 x63
<= 0

c_u_x923_:
+1 x337
-1000 x64
<= 0

c_u_x924_:
+1 x338
-1000 x65
<= 0

c_u_x925_:
+1 x339
-1000 x66
<= 0

c_u_x926_:
+1 x340
-1000 x67
<= 0

c_u_x927_:
+1 x341
-1000 x68
<= 0

c_u_x928_:
+1 x342
-1000 x69
<= 0

c_u_x929_:
+1 x343
-1000 x70
<= 0

c_u_x930_:
+1 x344
-1000 x71
<= 0

c_u_x931_:
+1 x345
-1000 x72
<= 0

c_u_x932_:
+1 x346
-1000 x73
<= 0

c_u_x933_:
+1 x347
-1000 x74
<= 0

c_u_x934_:
+1 x348
-1000 x75
<= 0

c_u_x935_:
+1 x349
-1000 x76
<= 0

c_u_x936_:
+1 x350
-1000 x77
<= 0

c_u_x937_:
+1 x351
-1000 x78
<= 0

c_u_x938_:
+1 x352
-1000 x79
<= 0

c_u_x939_:
+1 x353
-1000 x80
<= 0

c_u_x940_:
+1 x354
-1000 x81
<= 0

c_u_x941_:
+1 x355
-1000 x82
<= 0

c_u_x942_:
+1 x356
-1000 x83
<= 0

c_u_x943_:
+1 x357
-1000 x84
<= 0

c_u_x944_:
+1 x358
-1000 x85
<= 0

c_u_x945_:
+1 x359
-1000 x86
<= 0

c_u_x946_:
+1 x360
-1000 x87
<= 0

c_u_x947_:
+1 x361
-1000 x88
<= 0

c_u_x948_:
+1 x362
-1000 x89
<= 0

c_u_x949_:
+1 x363
-1000 x90
<= 0

c_u_x950_:
+1 x364
-1000 x91
<= 0

c_u_x951_:
+1 x365
-1000 x92
<= 0

c_u_x952_:
+1 x366
-1000 x93
<= 0

c_u_x953_:
+1 x367
-1000 x94
<= 0

c_u_x954_:
+1 x368
-1000 x95
<= 0

c_u_x955_:
+1 x369
-1000 x96
<= 0

c_u_x956_:
+1 x370
-1000 x97
<= 0

c_u_x957_:
+1 x371
-1000 x98
<= 0

c_u_x958_:
+1 x372
-1000 x99
<= 0

c_u_x959_:
-1000 x100
+1 x373
<= 0

c_u_x960_:
-1000 x101
+1 x374
<= 0

c_u_x961_:
-1000 x102
+1 x375
<= 0

c_u_x962_:
-1000 x103
+1 x376
<= 0

c_u_x963_:
-1000 x104
+1 x377
<= 0

c_u_x964_:
-1000 x105
+1 x378
<= 0

c_u_x965_:
-1000 x106
+1 x379
<= 0

c_u_x966_:
-1000 x107
+1 x380
<= 0

c_u_x967_:
-1000 x108
+1 x381
<= 0

c_u_x968_:
-1000 x109
+1 x382
<= 0

c_u_x969_:
-1000 x110
+1 x383
<= 0

c_u_x970_:
-1000 x111
+1 x384
<= 0

c_u_x971_:
-1000 x112
+1 x385
<= 0

c_u_x972_:
-1000 x113
+1 x386
<= 0

c_u_x973_:
-1000 x114
+1 x387
<= 0

c_u_x974_:
-1000 x115
+1 x388
<= 0

c_u_x975_:
-1000 x116
+1 x389
<= 0

c_u_x976_:
-1000 x117
+1 x390
<= 0

c_u_x977_:
-1000 x118
+1 x391
<= 0

c_u_x978_:
-1000 x119
+1 x392
<= 0

c_u_x979_:
-1000 x120
+1 x393
<= 0

c_u_x980_:
-1000 x121
+1 x394
<= 0

c_u_x981_:
-1000 x122
+1 x395
<= 0

c_u_x982_:
-1000 x123
+1 x396
<= 0

c_u_x983_:
-1000 x124
+1 x397
<= 0

c_u_x984_:
-1000 x125
+1 x398
<= 0

c_u_x985_:
-1000 x126
+1 x399
<= 0

c_u_x986_:
-1000 x127
+1 x400
<= 0

c_u_x987_:
-1000 x128
+1 x401
<= 0

c_u_x988_:
-1000 x129
+1 x402
<= 0

c_u_x989_:
-1000 x130
+1 x403
<= 0

c_u_x990_:
-1000 x131
+1 x404
<= 0

c_u_x991_:
-1000 x132
+1 x405
<= 0

c_u_x992_:
-1000 x133
+1 x406
<= 0

c_u_x993_:
-1000 x134
+1 x407
<= 0

c_u_x994_:
-1000 x135
+1 x408
<= 0

c_u_x995_:
-1000 x136
+1 x409
<= 0

c_u_x996_:
-1000 x137
+1 x410
<= 0

c_e_x997_:
-1 x138
+1 x229
+1 x320
= 1001.5776382757568

c_e_x998_:
-1 x139
+1 x230
+1 x321
= 847.58795484175369

c_e_x999_:
-1 x140
+1 x231
+1 x322
= 167.25980922525235

c_e_x1000_:
-1 x141
+1 x232
+1 x323
= 0.48829432262666983

c_e_x1001_:
-1 x142
+1 x233
+1 x324
= 643.96472347640338

c_e_x1002_:
-1 x143
+1 x234
+1 x325
= 295.06577193464688

c_e_x1003_:
-1 x144
+1 x235
+1 x326
= 253.17513281393954

c_e_x1004_:
-1 x145
+1 x236
+1 x327
= 710.06714300667124

c_e_x1005_:
-1 x146
+1 x237
+1 x328
= 51.519868889067808

c_e_x1006_:
-1 x147
+1 x238
+1 x329
= 370.55230245503742

c_e_x1007_:
-1 x148
+1 x239
+1 x330
= 0.025989281922009912

c_e_x1008_:
-1 x149
+1 x240
+1 x331
= 96.612420783773743

c_e_x1009_:
-1 x150
+1 x241
+1 x332
= 537.17659094459941

c_e_x1010_:
-1 x151
+1 x242
+1 x333
= 228.01033538678101

c_e_x1011_:
-1 x152
+1 x243
+1 x334
= 3.2954034631322511

c_e_x1012_:
-1 x153
+1 x244
+1 x335
= 11.415654386451807

c_e_x1013_:
-1 x154
+1 x245
+1 x336
= 3.8313013454264158

c_e_x1014_:
-1 x155
+1 x246
+1 x337
= 852.44435090423679

c_e_x1015_:
-1 x156
+1 x247
+1 x338
= 1045.8223857707517

c_e_x1016_:
-1 x157
+1 x248
+1 x339
= 671.73897542405405

c_e_x1017_:
-1 x158
+1 x249
+1 x340
= 517.37624481928538

c_e_x1018_:
-1 x159
+1 x250
+1 x341
= 519.92114529037315

c_e_x1019_:
-1 x160
+1 x251
+1 x342
= 595.77830463795294

c_e_x1020_:
-1 x161
+1 x252
+1 x343
= 175.16409345880768

c_e_x1021_:
-1 x162
+1 x253
+1 x344
= 707.0027639323165

c_e_x1022_:
-1 x163
+1 x254
+1 x345
= 770.28362140166735

c_e_x1023_:
-1 x164
+1 x255
+1 x346
= 421.82165750159118

c_e_x1024_:
-1 x165
+1 x256
+1 x347
= 0.69253749566526646

c_e_x1025_:
-1 x166
+1 x257
+1 x348
= 326.174236698897

c_e_x1026_:
-1 x167
+1 x258
+1 x349
= 234.22403461445023

c_e_x1027_:
-1 x168
+1 x259
+1 x350
= 441.22435242119292

c_e_x1028_:
-1 x169
+1 x260
+1 x351
= 185.10721068091286

c_e_x1029_:
-1 x170
+1 x261
+1 x352
= 230.16819569191637

c_e_x1030_:
-1 x171
+1 x262
+1 x353
= 103.84135912512915

c_e_x1031_:
-1 x172
+1 x263
+1 x354
= 5.8223725316064865

c_e_x1032_:
-1 x173
+1 x264
+1 x355
= 662.63771013537325

c_e_x1033_:
-1 x174
+1 x265
+1 x356
= 337.04448327900542

c_e_x1034_:
-1 x175
+1 x266
+1 x357
= 426.99660061973219

c_e_x1035_:
-1 x176
+1 x267
+1 x358
= 217.23249536741716

c_e_x1036_:
-1 x177
+1 x268
+1 x359
= 630.9894952779581

c_e_x1037_:
-1 x178
+1 x269
+1 x360
= 257.67405152868548

c_e_x1038_:
-1 x179
+1 x270
+1 x361
= 63.86889074623754

c_e_x1039_:
-1 x180
+1 x271
+1 x362
= 123.42048582829668

c_e_x1040_:
-1 x181
+1 x272
+1 x363
= 519.72051308959294

c_e_x1041_:
-1 x182
+1 x273
+1 x364
= 51.674040816038968

c_e_x1042_:
-1 x183
+1 x274
+1 x365
= 213.99987256212623

c_e_x1043_:
-1 x184
+1 x275
+1 x366
= 509.05550699912999

c_e_x1044_:
-1 x185
+1 x276
+1 x367
= 653.61405142334991

c_e_x1045_:
-1 x186
+1 x277
+1 x368
= 551.42390280515542

c_e_x1046_:
-1 x187
+1 x278
+1 x369
= 421.01652776339722

c_e_x1047_:
-1 x188
+1 x279
+1 x370
= 0.4748512806072569

c_e_x1048_:
-1 x189
+1 x280
+1 x371
= 291.14412966493296

c_e_x1049_:
-1 x190
+1 x281
+1 x372
= 347.35215656626161

c_e_x1050_:
-1 x191
+1 x282
+1 x373
= 418.51468375849208

c_e_x1051_:
-1 x192
+1 x283
+1 x374
= 76.810757037432936

c_e_x1052_:
-1 x193
+1 x284
+1 x375
= 0.025215138653989427

c_e_x1053_:
-1 x194
+1 x285
+1 x376
= 567.59986978698566

c_e_x1054_:
-1 x195
+1 x286
+1 x377
= 996.30501417350729

c_e_x1055_:
-1 x196
+1 x287
+1 x378
= 122.02655806284227

c_e_x1056_:
-1 x197
+1 x288
+1 x379
= 236.4338595006422

c_e_x1057_:
-1 x198
+1 x289
+1 x380
= 240.43766357015926

c_e_x1058_:
-1 x199
+1 x290
+1 x381
= 5.205516642309961

c_e_x1059_:
-1 x200
+1 x291
+1 x382
= 1298.975621394962

c_e_x1060_:
-1 x201
+1 x292
+1 x383
= 1207.9951665261112

c_e_x1061_:
-1 x202
+1 x293
+1 x384
= 171.00446176958616

c_e_x1062_:
-1 x203
+1 x294
+1 x385
= 499.14560059734697

c_e_x1063_:
-1 x204
+1 x295
+1 x386
= 372.49656309214487

c_e_x1064_:
-1 x205
+1 x296
+1 x387
= 805.47523729126749

c_e_x1065_:
-1 x206
+1 x297
+1 x388
= 532.66253324931279

c_e_x1066_:
-1 x207
+1 x298
+1 x389
= 203.137803376775

c_e_x1067_:
-1 x208
+1 x299
+1 x390
= 219.16844823426055

c_e_x1068_:
-1 x209
+1 x300
+1 x391
= 328.16528256979268

c_e_x1069_:
-1 x210
+1 x301
+1 x392
= 378.34459033267251

c_e_x1070_:
-1 x211
+1 x302
+1 x393
= 356.38184086079565

c_e_x1071_:
-1 x212
+1 x303
+1 x394
= 235.96605362004209

c_e_x1072_:
-1 x213
+1 x304
+1 x395
= 314.61268073229655

c_e_x1073_:
-1 x214
+1 x305
+1 x396
= 1130.791598009693

c_e_x1074_:
-1 x215
+1 x306
+1 x397
= 898.76473911149174

c_e_x1075_:
-1 x216
+1 x307
+1 x398
= 118.38878927035698

c_e_x1076_:
-1 x217
+1 x308
+1 x399
= 458.83425659417122

c_e_x1077_:
-1 x218
+1 x309
+1 x400
= 486.71093436907245

c_e_x1078_:
-1 x219
+1 x310
+1 x401
= 171.12089268065063

c_e_x1079_:
-1 x220
+1 x311
+1 x402
= 87.27328278730306

c_e_x1080_:
-1 x221
+1 x312
+1 x403
= 585.39451415482188

c_e_x1081_:
-1 x222
+1 x313
+1 x404
= 753.90702066082656

c_e_x1082_:
-1 x223
+1 x314
+1 x405
= 393.48333073409987

c_e_x1083_:
-1 x224
+1 x315
+1 x406
= 418.89470069492739

c_e_x1084_:
-1 x225
+1 x316
+1 x407
= 163.26573581621489

c_e_x1085_:
-1 x226
+1 x317
+1 x408
= 192.35345004273634

c_e_x1086_:
-1 x227
+1 x318
+1 x409
= 386.20978374490858

c_e_x1087_:
-1 x228
+1 x319
+1 x410
= 261.76116721429986

c_e_ONE_VAR_CONSTANT: 
ONE_VAR_CONSTANT = 1.0

bounds
   0 <= x1 <= 1
   0 <= x2 <= 1
   0 <= x3 <= 1
   0 <= x4 <= 1
   0 <= x5 <= 1
   0 <= x6 <= 1
   0 <= x7 <= 1
   0 <= x8 <= 1
   0 <= x9 <= 1
   0 <= x10 <= 1
   0 <= x11 <= 1
   0 <= x12 <= 1
   0 <= x13 <= 1
   0 <= x14 <= 1
   0 <= x15 <= 1
   0 <= x16 <= 1
   0 <= x17 <= 1
   0 <= x18 <= 1
   0 <= x19 <= 1
   0 <= x20 <= 1
   0 <= x21 <= 1
   0 <= x22 <= 1
   0 <= x23 <= 1
   0 <= x24 <= 1
   0 <= x25 <= 1
   0 <= x26 <= 1
   0 <= x27 <= 1
   0 <= x28 <= 1
   0 <= x29 <= 1
   0 <= x30 <= 1
   0 <= x31 <= 1
   0 <= x32 <= 1
   0 <= x33 <= 1
   0 <= x34 <= 1
   0 <= x35 <= 1
   0 <= x36 <= 1
   0 <= x37 <= 1
   0 <= x38 <= 1
   0 <= x39 <= 1
   0 <= x40 <= 1
   0 <= x41 <= 1
   0 <= x42 <= 1
   0 <= x43 <= 1
   0 <= x44 <= 1
   0 <= x45 <= 1
   0 <= x46 <= 1
    -inf <= x47 <= +inf
    -inf <= x48 <= +inf
    -inf <= x49 <= +inf
    -inf <= x50 <= +inf
    -inf <= x51 <= +inf
    -inf <= x52 <= +inf
    -inf <= x53 <= +inf
    -inf <= x54 <= +inf
    -inf <= x55 <= +inf
    -inf <= x56 <= +inf
    -inf <= x57 <= +inf
    -inf <= x58 <= +inf
    -inf <= x59 <= +inf
    -inf <= x60 <= +inf
    -inf <= x61 <= +inf
    -inf <= x62 <= +inf
    -inf <= x63 <= +inf
    -inf <= x64 <= +inf
    -inf <= x65 <= +inf
    -inf <= x66 <= +inf
    -inf <= x67 <= +inf
    -inf <= x68 <= +inf
    -inf <= x69 <= +inf
    -inf <= x70 <= +inf
    -inf <= x71 <= +inf
    -inf <= x72 <= +inf
    -inf <= x73 <= +inf
    -inf <= x74 <= +inf
    -inf <= x75 <= +inf
    -inf <= x76 <= +inf
    -inf <= x77 <= +inf
    -inf <= x78 <= +inf
    -inf <= x79 <= +inf
    -inf <= x80 <= +inf
    -inf <= x81 <= +inf
    -inf <= x82 <= +inf
    -inf <= x83 <= +inf
    -inf <= x84 <= +inf
    -inf <= x85 <= +inf
    -inf <= x86 <= +inf
    -inf <= x87 <= +inf
    -inf <= x88 <= +inf
    -inf <= x89 <= +inf
    -inf <= x90 <= +inf
    -inf <= x91 <= +inf
    -inf <= x92 <= +inf
    -inf <= x93 <= +inf
    -inf <= x94 <= +inf
    -inf <= x95 <= +inf
    -inf <= x96 <= +inf
    -inf <= x97 <= +inf
    -inf <= x98 <= +inf
    -inf <= x99 <= +inf
    -inf <= x100 <= +inf
    -inf <= x101 <= +inf
    -inf <= x102 <= +inf
    -inf <= x103 <= +inf
    -inf <= x104 <= +inf
    -inf <= x105 <= +inf
    -inf <= x106 <= +inf
    -inf <= x107 <= +inf
    -inf <= x108 <= +inf
    -inf <= x109 <= +inf
    -inf <= x110 <= +inf
    -inf <= x111 <= +inf
    -inf <= x112 <= +inf
    -inf <= x113 <= +inf
    -inf <= x114 <= +inf
    -inf <= x115 <= +inf
    -inf <= x116 <= +inf
    -inf <= x117 <= +inf
    -inf <= x118 <= +inf
    -inf <= x119 <= +inf
    -inf <= x120 <= +inf
    -inf <= x121 <= +inf
    -inf <= x122 <= +inf
    -inf <= x123 <= +inf
    -inf <= x124 <= +inf
    -inf <= x125 <= +inf
    -inf <= x126 <= +inf
    -inf <= x127 <= +inf
    -inf <= x128 <= +inf
    -inf <= x129 <= +inf
    -inf <= x130 <= +inf
    -inf <= x131 <= +inf
    -inf <= x132 <= +inf
    -inf <= x133 <= +inf
    -inf <= x134 <= +inf
    -inf <= x135 <= +inf
    -inf <= x136 <= +inf
    -inf <= x137 <= +inf
    -inf <= x138 <= +inf
    -inf <= x139 <= +inf
    -inf <= x140 <= +inf
    -inf <= x141 <= +inf
    -inf <= x142 <= +inf
    -inf <= x143 <= +inf
    -inf <= x144 <= +inf
    -inf <= x145 <= +inf
    -inf <= x146 <= +inf
    -inf <= x147 <= +inf
    -inf <= x148 <= +inf
    -inf <= x149 <= +inf
    -inf <= x150 <= +inf
    -inf <= x151 <= +inf
    -inf <= x152 <= +inf
    -inf <= x153 <= +inf
    -inf <= x154 <= +inf
    -inf <= x155 <= +inf
    -inf <= x156 <= +inf
    -inf <= x157 <= +inf
    -inf <= x158 <= +inf
    -inf <= x159 <= +inf
    -inf <= x160 <= +inf
    -inf <= x161 <= +inf
    -inf <= x162 <= +inf
    -inf <= x163 <= +inf
    -inf <= x164 <= +inf
    -inf <= x165 <= +inf
    -inf <= x166 <= +inf
    -inf <= x167 <= +inf
    -inf <= x168 <= +inf
    -inf <= x169 <= +inf
    -inf <= x170 <= +inf
    -inf <= x171 <= +inf
    -inf <= x172 <= +inf
    -inf <= x173 <= +inf
    -inf <= x174 <= +inf
    -inf <= x175 <= +inf
    -inf <= x176 <= +inf
    -inf <= x177 <= +inf
    -inf <= x178 <= +inf
    -inf <= x179 <= +inf
    -inf <= x180 <= +inf
    -inf <= x181 <= +inf
    -inf <= x182 <= +inf
    -inf <= x183 <= +inf
    -inf <= x184 <= +inf
    -inf <= x185 <= +inf
    -inf <= x186 <= +inf
    -inf <= x187 <= +inf
    -inf <= x188 <= +inf
    -inf <= x189 <= +inf
    -inf <= x190 <= +inf
    -inf <= x191 <= +inf
    -inf <= x192 <= +inf
    -inf <= x193 <= +inf
    -inf <= x194 <= +inf
    -inf <= x195 <= +inf
    -inf <= x196 <= +inf
    -inf <= x197 <= +inf
    -inf <= x198 <= +inf
    -inf <= x199 <= +inf
    -inf <= x200 <= +inf
    -inf <= x201 <= +inf
    -inf <= x202 <= +inf
    -inf <= x203 <= +inf
    -inf <= x204 <= +inf
    -inf <= x205 <= +inf
    -inf <= x206 <= +inf
    -inf <= x207 <= +inf
    -inf <= x208 <= +inf
    -inf <= x209 <= +inf
    -inf <= x210 <= +inf
    -inf <= x211 <= +inf
    -inf <= x212 <= +inf
    -inf <= x213 <= +inf
    -inf <= x214 <= +inf
    -inf <= x215 <= +inf
    -inf <= x216 <= +inf
    -inf <= x217 <= +inf
    -inf <= x218 <= +inf
    -inf <= x219 <= +inf
    -inf <= x220 <= +inf
    -inf <= x221 <= +inf
    -inf <= x222 <= +inf
    -inf <= x223 <= +inf
    -inf <= x224 <= +inf
    -inf <= x225 <= +inf
    -inf <= x226 <= +inf
    -inf <= x227 <= +inf
    -inf <= x228 <= +inf
    -inf <= x229 <= +inf
    -inf <= x230 <= +inf
    -inf <= x231 <= +inf
    -inf <= x232 <= +inf
    -inf <= x233 <= +inf
    -inf <= x234 <= +inf
    -inf <= x235 <= +inf
    -inf <= x236 <= +inf
    -inf <= x237 <= +inf
    -inf <= x238 <= +inf
    -inf <= x239 <= +inf
    -inf <= x240 <= +inf
    -inf <= x241 <= +inf
    -inf <= x242 <= +inf
    -inf <= x243 <= +inf
    -inf <= x244 <= +inf
    -inf <= x245 <= +inf
    -inf <= x246 <= +inf
    -inf <= x247 <= +inf
    -inf <= x248 <= +inf
    -inf <= x249 <= +inf
    -inf <= x250 <= +inf
    -inf <= x251 <= +inf
    -inf <= x252 <= +inf
    -inf <= x253 <= +inf
    -inf <= x254 <= +inf
    -inf <= x255 <= +inf
    -inf <= x256 <= +inf
    -inf <= x257 <= +inf
    -inf <= x258 <= +inf
    -inf <= x259 <= +inf
    -inf <= x260 <= +inf
    -inf <= x261 <= +inf
    -inf <= x262 <= +inf
    -inf <= x263 <= +inf
    -inf <= x264 <= +inf
    -inf <= x265 <= +inf
    -inf <= x266 <= +inf
    -inf <= x267 <= +inf
    -inf <= x268 <= +inf
    -inf <= x269 <= +inf
    -inf <= x270 <= +inf
    -inf <= x271 <= +inf
    -inf <= x272 <= +inf
    -inf <= x273 <= +inf
    -inf <= x274 <= +inf
    -inf <= x275 <= +inf
    -inf <= x276 <= +inf
    -inf <= x277 <= +inf
    -inf <= x278 <= +inf
    -inf <= x279 <= +inf
    -inf <= x280 <= +inf
    -inf <= x281 <= +inf
    -inf <= x282 <= +inf
    -inf <= x283 <= +inf
    -inf <= x284 <= +inf
    -inf <= x285 <= +inf
    -inf <= x286 <= +inf
    -inf <= x287 <= +inf
    -inf <= x288 <= +inf
    -inf <= x289 <= +inf
    -inf <= x290 <= +inf
    -inf <= x291 <= +inf
    -inf <= x292 <= +inf
    -inf <= x293 <= +inf
    -inf <= x294 <= +inf
    -inf <= x295 <= +inf
    -inf <= x296 <= +inf
    -inf <= x297 <= +inf
    -inf <= x298 <= +inf
    -inf <= x299 <= +inf
    -inf <= x300 <= +inf
    -inf <= x301 <= +inf
    -inf <= x302 <= +inf
    -inf <= x303 <= +inf
    -inf <= x304 <= +inf
    -inf <= x305 <= +inf
    -inf <= x306 <= +inf
    -inf <= x307 <= +inf
    -inf <= x308 <= +inf
    -inf <= x309 <= +inf
    -inf <= x310 <= +inf
    -inf <= x311 <= +inf
    -inf <= x312 <= +inf
    -inf <= x313 <= +inf
    -inf <= x314 <= +inf
    -inf <= x315 <= +inf
    -inf <= x316 <= +inf
    -inf <= x317 <= +inf
    -inf <= x318 <= +inf
    -inf <= x319 <= +inf
    -inf <= x320 <= +inf
    -inf <= x321 <= +inf
    -inf <= x322 <= +inf
    -inf <= x323 <= +inf
    -inf <= x324 <= +inf
    -inf <= x325 <= +inf
    -inf <= x326 <= +inf
    -inf <= x327 <= +inf
    -inf <= x328 <= +inf
    -inf <= x329 <= +inf
    -inf <= x330 <= +inf
    -inf <= x331 <= +inf
    -inf <= x332 <= +inf
    -inf <= x333 <= +inf
    -inf <= x334 <= +inf
    -inf <= x335 <= +inf
    -inf <= x336 <= +inf
    -inf <= x337 <= +inf
    -inf <= x338 <= +inf
    -inf <= x339 <= +inf
    -inf <= x340 <= +inf
    -inf <= x341 <= +inf
    -inf <= x342 <= +inf
    -inf <= x343 <= +inf
    -inf <= x344 <= +inf
    -inf <= x345 <= +inf
    -inf <= x346 <= +inf
    -inf <= x347 <= +inf
    -inf <= x348 <= +inf
    -inf <= x349 <= +inf
    -inf <= x350 <= +inf
    -inf <= x351 <= +inf
    -inf <= x352 <= +inf
    -inf <= x353 <= +inf
    -inf <= x354 <= +inf
    -inf <= x355 <= +inf
    -inf <= x356 <= +inf
    -inf <= x357 <= +inf
    -inf <= x358 <= +inf
    -inf <= x359 <= +inf
    -inf <= x360 <= +inf
    -inf <= x361 <= +inf
    -inf <= x362 <= +inf
    -inf <= x363 <= +inf
    -inf <= x364 <= +inf
    -inf <= x365 <= +inf
    -inf <= x366 <= +inf
    -inf <= x367 <= +inf
    -inf <= x368 <= +inf
    -inf <= x369 <= +inf
    -inf <= x370 <= +inf
    -inf <= x371 <= +inf
    -inf <= x372 <= +inf
    -inf <= x373 <= +inf
    -inf <= x374 <= +inf
    -inf <= x375 <= +inf
    -inf <= x376 <= +inf
    -inf <= x377 <= +inf
    -inf <= x378 <= +inf
    -inf <= x379 <= +inf
    -inf <= x380 <= +inf
    -inf <= x381 <= +inf
    -inf <= x382 <= +inf
    -inf <= x383 <= +inf
    -inf <= x384 <= +inf
    -inf <= x385 <= +inf
    -inf <= x386 <= +inf
    -inf <= x387 <= +inf
    -inf <= x388 <= +inf
    -inf <= x389 <= +inf
    -inf <= x390 <= +inf
    -inf <= x391 <= +inf
    -inf <= x392 <= +inf
    -inf <= x393 <= +inf
    -inf <= x394 <= +inf
    -inf <= x395 <= +inf
    -inf <= x396 <= +inf
    -inf <= x397 <= +inf
    -inf <= x398 <= +inf
    -inf <= x399 <= +inf
    -inf <= x400 <= +inf
    -inf <= x401 <= +inf
    -inf <= x402 <= +inf
    -inf <= x403 <= +inf
    -inf <= x404 <= +inf
    -inf <= x405 <= +inf
    -inf <= x406 <= +inf
    -inf <= x407 <= +inf
    -inf <= x408 <= +inf
    -inf <= x409 <= +inf
    -inf <= x410 <= +inf
general
  x47
  x48
  x49
  x50
  x51
  x52
  x53
  x54
  x55
  x56
  x57
  x58
  x59
  x60
  x61
  x62
  x63
  x64
  x65
  x66
  x67
  x68
  x69
  x70
  x71
  x72
  x73
  x74
  x75
  x76
  x77
  x78
  x79
  x80
  x81
  x82
  x83
  x84
  x85
  x86
  x87
  x88
  x89
  x90
  x91
  x92
  x93
  x94
  x95
  x96
  x97
  x98
  x99
  x100
  x101
  x102
  x103
  x104
  x105
  x106
  x107
  x108
  x109
  x110
  x111
  x112
  x113
  x114
  x115
  x116
  x117
  x118
  x119
  x120
  x121
  x122
  x123
  x124
  x125
  x126
  x127
  x128
  x129
  x130
  x131
  x132
  x133
  x134
  x135
  x136
  x137
binary
  x1
  x2
  x3
  x4
  x5
  x6
  x7
  x8
  x9
  x10
  x11
  x12
  x13
  x14
  x15
  x16
  x17
  x18
  x19
  x20
  x21
  x22
  x23
  x24
  x25
  x26
  x27
  x28
  x29
  x30
  x31
  x32
  x33
  x34
  x35
  x36
  x37
  x38
  x39
  x40
  x41
  x42
  x43
  x44
  x45
  x46
end
